2,1,11,1,9,3,18,2,16,2,10,1,1,3,5,1,3,1,12,3,17,4,19,2,4,4,3,3,14,4,15,2,20,5,13,4,8,5;18,1,16,1,7,1,1,2,20,3,10,2,14,2,13,1,12,4,2,3,3,2,5,4,8,3,7,4,11,3,4,5,19,4,15,5,6,5;4,1,9,2,1,1,14,1,20,2,18,3,9,4,12,2,10,3,5,2,6,2,1,5,7,3,17,5,13,2,5,5,8,4,2,5,15,4,16,5,11,5;2,2,11,2,4,2,18,4,1,4,20,4,17,3,5,3,9,5,12,5,10,4,8,2,16,4,10,5,14,5,6,4,15,3,7,5,13,5,19,5,3,5;9,1,17,1,20,1,12,1,15,1,19,1,7,2,4,3,17,2,6,1,14,3,8,1,16,3,2,4,6,3,19,3,11,4,13,3,3,4,18,5;
